NAME : STSP_75-1over3.3.4.830.tour
COMMENT : Length = 830
COMMENT : Found by LKH-3 [Keld Helsgaun]
TYPE : TOUR
DIMENSION : 25
TOUR_SECTION
44
55
24
74
46
8
36
23
70
50
40
12
71
61
1
3
31
63
73
51
15
21
15
51
34
11
10
2
22
33
22
52
30
49
39
58
20
32
25
32
67
65
16
59
19
29
55
-1
EOF
